words_hard_train/7087.qaiger
aag 129 19 0 1 110
2
4
12
20
34
42
58
60
64
90
98
110
118
140
148
176
178
186
202
259
6 3 5
8 2 4
10 7 9
14 4 12
16 5 13
18 15 17
22 19 21
24 18 20
26 23 25
28 10 26
30 8 26
32 31 25
36 17 34
38 16 35
40 37 39
44 41 43
46 40 42
48 45 47
50 32 49
52 33 48
54 51 53
56 29 55
62 59 61
66 63 65
68 9 27
70 69 31
72 71 60
74 10 59
76 72 75
78 66 77
80 56 79
82 28 54
84 81 83
86 85 66
88 53 47
92 39 90
94 38 91
96 93 95
100 97 99
102 96 98
104 101 103
106 89 104
108 107 103
112 95 110
114 94 111
116 113 115
120 117 119
122 116 118
124 121 123
126 108 125
128 109 124
130 127 129
132 88 105
134 133 107
136 131 135
138 129 123
142 115 140
144 114 141
146 143 145
150 147 149
152 146 148
154 151 153
156 138 155
158 139 154
160 157 159
162 136 161
164 162 83
166 82 134
168 130 166
170 160 168
172 165 171
174 86 173
180 176 178
182 177 179
184 181 183
188 144 187
190 184 189
192 185 188
194 191 193
196 159 153
198 145 186
200 199 189
204 201 203
206 200 202
208 205 207
210 197 208
212 211 207
214 195 213
216 194 212
218 215 217
220 196 209
222 221 211
224 222 170
226 219 224
228 218 225
230 227 229
232 175 231
234 223 171
236 235 225
238 233 237
240 77 29
242 241 63
244 243 134
246 244 64
248 246 84
250 248 160
252 131 167
254 250 253
256 255 230
258 239 257
i0 2 y2[0]
i1 1 x1[0]
i2 1 x1[1]
i3 2 y2[1]
i4 1 x1[2]
i5 2 y2[2]
i6 2 y1[5]
i7 2 y1[6]
i8 2 y1[7]
i9 1 x1[3]
i10 2 y2[3]
i11 1 x1[4]
i12 2 y2[4]
i13 1 x1[5]
i14 2 y2[5]
i15 2 y2[7]
i16 1 x1[7]
i17 1 x1[6]
i18 2 y2[6]
o0 bv[0]
c
simplified
  >
    >> 5
      2 y1
    add
      1
      subtract
        2 y2
        1 x1
