words_hard_train/7087.qaiger.qdimacs
p cnf 129 331
a 2 6 70 45 17 55 89 93 0
e 1 3 4 5 7 8 9 10 11 12 13 14 15 16 18 19 20 21 22 23 24 25 26 27 28 29 30 31 32 33 34 35 36 37 38 39 40 41 42 43 44 46 47 48 49 50 51 52 53 54 56 57 58 59 60 61 62 63 64 65 66 67 68 69 71 72 73 74 75 76 77 78 79 80 81 82 83 84 85 86 87 88 90 91 92 94 95 96 97 98 99 100 101 102 103 104 105 106 107 108 109 110 111 112 113 114 115 116 117 118 119 120 121 122 123 124 125 126 127 128 129 0
1 2 3 0
-1 -3 0
-2 -3 0
-1 -2 4 0
1 -4 0
2 -4 0
3 4 5 0
-3 -5 0
-4 -5 0
-2 -6 7 0
2 -7 0
6 -7 0
2 6 8 0
-2 -8 0
-6 -8 0
7 8 9 0
-7 -9 0
-8 -9 0
9 10 11 0
-9 -11 0
-10 -11 0
-9 -10 12 0
9 -12 0
10 -12 0
11 12 13 0
-11 -13 0
-12 -13 0
-5 -13 14 0
5 -14 0
13 -14 0
-4 -13 15 0
4 -15 0
13 -15 0
15 12 16 0
-15 -16 0
-12 -16 0
8 -17 18 0
-8 -18 0
17 -18 0
-8 17 19 0
8 -19 0
-17 -19 0
18 19 20 0
-18 -20 0
-19 -20 0
20 21 22 0
-20 -22 0
-21 -22 0
-20 -21 23 0
20 -23 0
21 -23 0
22 23 24 0
-22 -24 0
-23 -24 0
-16 24 25 0
16 -25 0
-24 -25 0
16 -24 26 0
-16 -26 0
24 -26 0
25 26 27 0
-25 -27 0
-26 -27 0
14 27 28 0
-14 -28 0
-27 -28 0
29 30 31 0
-29 -31 0
-30 -31 0
31 32 33 0
-31 -33 0
-32 -33 0
4 13 34 0
-4 -34 0
-13 -34 0
34 15 35 0
-34 -35 0
-15 -35 0
35 -30 36 0
-35 -36 0
30 -36 0
-5 29 37 0
5 -37 0
-29 -37 0
-36 37 38 0
36 -38 0
-37 -38 0
-33 38 39 0
33 -39 0
-38 -39 0
-28 39 40 0
28 -40 0
-39 -40 0
-14 -27 41 0
14 -41 0
27 -41 0
40 41 42 0
-40 -42 0
-41 -42 0
42 -33 43 0
-42 -43 0
33 -43 0
26 23 44 0
-26 -44 0
-23 -44 0
19 -45 46 0
-19 -46 0
45 -46 0
-19 45 47 0
19 -47 0
-45 -47 0
46 47 48 0
-46 -48 0
-47 -48 0
48 49 50 0
-48 -50 0
-49 -50 0
-48 -49 51 0
48 -51 0
49 -51 0
50 51 52 0
-50 -52 0
-51 -52 0
44 -52 53 0
-44 -53 0
52 -53 0
53 51 54 0
-53 -54 0
-51 -54 0
47 -55 56 0
-47 -56 0
55 -56 0
-47 55 57 0
47 -57 0
-55 -57 0
56 57 58 0
-56 -58 0
-57 -58 0
58 59 60 0
-58 -60 0
-59 -60 0
-58 -59 61 0
58 -61 0
59 -61 0
60 61 62 0
-60 -62 0
-61 -62 0
-54 62 63 0
54 -63 0
-62 -63 0
54 -62 64 0
-54 -64 0
62 -64 0
63 64 65 0
-63 -65 0
-64 -65 0
-44 52 66 0
44 -66 0
-52 -66 0
66 53 67 0
-66 -67 0
-53 -67 0
65 67 68 0
-65 -68 0
-67 -68 0
64 61 69 0
-64 -69 0
-61 -69 0
57 -70 71 0
-57 -71 0
70 -71 0
-57 70 72 0
57 -72 0
-70 -72 0
71 72 73 0
-71 -73 0
-72 -73 0
73 74 75 0
-73 -75 0
-74 -75 0
-73 -74 76 0
73 -76 0
74 -76 0
75 76 77 0
-75 -77 0
-76 -77 0
-69 77 78 0
69 -78 0
-77 -78 0
69 -77 79 0
-69 -79 0
77 -79 0
78 79 80 0
-78 -80 0
-79 -80 0
-68 80 81 0
68 -81 0
-80 -81 0
-81 41 82 0
81 -82 0
-41 -82 0
-41 -67 83 0
41 -83 0
67 -83 0
-65 -83 84 0
65 -84 0
83 -84 0
-80 -84 85 0
80 -85 0
84 -85 0
82 85 86 0
-82 -86 0
-85 -86 0
-43 86 87 0
43 -87 0
-86 -87 0
-88 -89 90 0
88 -90 0
89 -90 0
88 89 91 0
-88 -91 0
-89 -91 0
90 91 92 0
-90 -92 0
-91 -92 0
-72 93 94 0
72 -94 0
-93 -94 0
-92 94 95 0
92 -95 0
-94 -95 0
92 -94 96 0
-92 -96 0
94 -96 0
95 96 97 0
-95 -97 0
-96 -97 0
79 76 98 0
-79 -98 0
-76 -98 0
72 -93 99 0
-72 -99 0
93 -99 0
99 94 100 0
-99 -100 0
-94 -100 0
100 101 102 0
-100 -102 0
-101 -102 0
-100 -101 103 0
100 -103 0
101 -103 0
102 103 104 0
-102 -104 0
-103 -104 0
98 -104 105 0
-98 -105 0
104 -105 0
105 103 106 0
-105 -106 0
-103 -106 0
97 106 107 0
-97 -107 0
-106 -107 0
-97 -106 108 0
97 -108 0
106 -108 0
107 108 109 0
-107 -109 0
-108 -109 0
-98 104 110 0
98 -110 0
-104 -110 0
110 105 111 0
-110 -111 0
-105 -111 0
-111 -85 112 0
111 -112 0
85 -112 0
109 -112 113 0
-109 -113 0
112 -113 0
-109 112 114 0
109 -114 0
-112 -114 0
113 114 115 0
-113 -115 0
-114 -115 0
87 115 116 0
-87 -116 0
-115 -116 0
111 85 117 0
-111 -117 0
-85 -117 0
117 112 118 0
-117 -118 0
-112 -118 0
116 118 119 0
-116 -119 0
-118 -119 0
38 14 120 0
-38 -120 0
-14 -120 0
120 31 121 0
-120 -121 0
-31 -121 0
121 -67 122 0
-121 -122 0
67 -122 0
-122 -32 123 0
122 -123 0
32 -123 0
-123 -42 124 0
123 -124 0
42 -124 0
-124 -80 125 0
124 -125 0
80 -125 0
65 83 126 0
-65 -126 0
-83 -126 0
-125 126 127 0
125 -127 0
-126 -127 0
127 -115 128 0
-127 -128 0
115 -128 0
119 128 129 0
-119 -129 0
-128 -129 0
-129 0
